Maximize
  6 x_banana_haters_package + 7 x_combo_package
Subject To
  c1: 6 x_banana_haters_package + 5 x_combo_package <= 10
  c2: 6 x_combo_package <= 20
  c3: 30 x_banana_haters_package + 20 x_combo_package <= 80
Integer
  x_banana_haters_package x_combo_package
End